NAME /Users/henri/Research/solvers/instances/idol-instances/robust/collection/spp_dkp_Lefebvre_et_al_2026/shortest_path_11_8/models/uncertain_ctr/model
ROWS
 N  OBJ
 E  flow_cons_inner_nodes[0]
 E  flow_cons_inner_nodes[1]
 E  flow_cons_inner_nodes[2]
 E  flow_cons_inner_nodes[5]
 E  flow_cons_inner_nodes[6]
 E  flow_cons_inner_nodes[7]
 E  flow_cons_inner_nodes[8]
 E  flow_cons_inner_nodes[9]
 E  flow_cons_inner_nodes[10]
 E  flow_cons_source
 E  flow_cons_target
 G  c_15112
COLUMNS
    z          OBJ        1
    z          c_15112    1
    MARKER    'MARKER'                 'INTORG'
    y[0,1]     OBJ        0
    y[0,1]     c_15112    -49.98
    y[0,1]     flow_cons_inner_nodes[1] 1
    y[0,1]     flow_cons_inner_nodes[0] -1
    y[0,2]     OBJ        0
    y[0,2]     c_15112    -62.77
    y[0,2]     flow_cons_inner_nodes[2] 1
    y[0,2]     flow_cons_inner_nodes[0] -1
    y[0,3]     OBJ        0
    y[0,3]     c_15112    -64.07
    y[0,3]     flow_cons_source -1
    y[0,3]     flow_cons_inner_nodes[0] -1
    y[0,4]     OBJ        0
    y[0,4]     c_15112    -31.89
    y[0,4]     flow_cons_target 1
    y[0,4]     flow_cons_inner_nodes[0] -1
    y[0,5]     OBJ        0
    y[0,5]     c_15112    -7.81
    y[0,5]     flow_cons_inner_nodes[5] 1
    y[0,5]     flow_cons_inner_nodes[0] -1
    y[0,6]     OBJ        0
    y[0,6]     c_15112    -62.68
    y[0,6]     flow_cons_inner_nodes[6] 1
    y[0,6]     flow_cons_inner_nodes[0] -1
    y[0,7]     OBJ        0
    y[0,7]     c_15112    -25.3
    y[0,7]     flow_cons_inner_nodes[7] 1
    y[0,7]     flow_cons_inner_nodes[0] -1
    y[0,8]     OBJ        0
    y[0,8]     c_15112    -45.12
    y[0,8]     flow_cons_inner_nodes[8] 1
    y[0,8]     flow_cons_inner_nodes[0] -1
    y[0,9]     OBJ        0
    y[0,9]     c_15112    -51.97
    y[0,9]     flow_cons_inner_nodes[9] 1
    y[0,9]     flow_cons_inner_nodes[0] -1
    y[0,10]    OBJ        0
    y[0,10]    c_15112    -23.77
    y[0,10]    flow_cons_inner_nodes[10] 1
    y[0,10]    flow_cons_inner_nodes[0] -1
    y[1,0]     OBJ        0
    y[1,0]     c_15112    -49.98
    y[1,0]     flow_cons_inner_nodes[1] -1
    y[1,0]     flow_cons_inner_nodes[0] 1
    y[1,2]     OBJ        0
    y[1,2]     c_15112    -16.55
    y[1,2]     flow_cons_inner_nodes[2] 1
    y[1,2]     flow_cons_inner_nodes[1] -1
    y[1,3]     OBJ        0
    y[1,3]     c_15112    -22.02
    y[1,3]     flow_cons_source -1
    y[1,3]     flow_cons_inner_nodes[1] -1
    y[1,5]     OBJ        0
    y[1,5]     c_15112    -46.53
    y[1,5]     flow_cons_inner_nodes[5] 1
    y[1,5]     flow_cons_inner_nodes[1] -1
    y[1,6]     OBJ        0
    y[1,6]     c_15112    -18.68
    y[1,6]     flow_cons_inner_nodes[6] 1
    y[1,6]     flow_cons_inner_nodes[1] -1
    y[1,8]     OBJ        0
    y[1,8]     c_15112    -45.8
    y[1,8]     flow_cons_inner_nodes[8] 1
    y[1,8]     flow_cons_inner_nodes[1] -1
    y[1,9]     OBJ        0
    y[1,9]     c_15112    -50.25
    y[1,9]     flow_cons_inner_nodes[9] 1
    y[1,9]     flow_cons_inner_nodes[1] -1
    y[1,10]    OBJ        0
    y[1,10]    c_15112    -53.34
    y[1,10]    flow_cons_inner_nodes[10] 1
    y[1,10]    flow_cons_inner_nodes[1] -1
    y[2,0]     OBJ        0
    y[2,0]     c_15112    -62.77
    y[2,0]     flow_cons_inner_nodes[2] -1
    y[2,0]     flow_cons_inner_nodes[0] 1
    y[2,1]     OBJ        0
    y[2,1]     c_15112    -16.55
    y[2,1]     flow_cons_inner_nodes[2] -1
    y[2,1]     flow_cons_inner_nodes[1] 1
    y[2,3]     OBJ        0
    y[2,3]     flow_cons_source -1
    y[2,3]     c_15112    -30.68
    y[2,3]     flow_cons_inner_nodes[2] -1
    y[2,5]     OBJ        0
    y[2,5]     flow_cons_inner_nodes[5] 1
    y[2,5]     c_15112    -60.61
    y[2,5]     flow_cons_inner_nodes[2] -1
    y[2,6]     OBJ        0
    y[2,6]     flow_cons_inner_nodes[6] 1
    y[2,6]     c_15112    -3.61
    y[2,6]     flow_cons_inner_nodes[2] -1
    y[2,8]     OBJ        0
    y[2,8]     flow_cons_inner_nodes[8] 1
    y[2,8]     c_15112    -45.61
    y[2,8]     flow_cons_inner_nodes[2] -1
    y[2,9]     OBJ        0
    y[2,9]     c_15112    -47.93
    y[2,9]     flow_cons_inner_nodes[9] 1
    y[2,9]     flow_cons_inner_nodes[2] -1
    y[2,10]    OBJ        0
    y[2,10]    flow_cons_inner_nodes[10] 1
    y[2,10]    c_15112    -60.67
    y[2,10]    flow_cons_inner_nodes[2] -1
    y[3,0]     OBJ        0
    y[3,0]     c_15112    -64.07
    y[3,0]     flow_cons_source 1
    y[3,0]     flow_cons_inner_nodes[0] 1
    y[3,1]     OBJ        0
    y[3,1]     c_15112    -22.02
    y[3,1]     flow_cons_source 1
    y[3,1]     flow_cons_inner_nodes[1] 1
    y[3,2]     OBJ        0
    y[3,2]     flow_cons_source 1
    y[3,2]     c_15112    -30.68
    y[3,2]     flow_cons_inner_nodes[2] 1
    y[3,5]     OBJ        0
    y[3,5]     c_15112    -58.55
    y[3,5]     flow_cons_source 1
    y[3,5]     flow_cons_inner_nodes[5] 1
    y[3,6]     OBJ        0
    y[3,6]     c_15112    -34.18
    y[3,6]     flow_cons_source 1
    y[3,6]     flow_cons_inner_nodes[6] 1
    y[3,8]     OBJ        0
    y[3,8]     c_15112    -67.8
    y[3,8]     flow_cons_source 1
    y[3,8]     flow_cons_inner_nodes[8] 1
    y[4,0]     OBJ        0
    y[4,0]     c_15112    -31.89
    y[4,0]     flow_cons_target -1
    y[4,0]     flow_cons_inner_nodes[0] 1
    y[4,5]     OBJ        0
    y[4,5]     c_15112    -39.7
    y[4,5]     flow_cons_target -1
    y[4,5]     flow_cons_inner_nodes[5] 1
    y[4,7]     OBJ        0
    y[4,7]     c_15112    -29
    y[4,7]     flow_cons_target -1
    y[4,7]     flow_cons_inner_nodes[7] 1
    y[4,8]     OBJ        0
    y[4,8]     c_15112    -41.05
    y[4,8]     flow_cons_target -1
    y[4,8]     flow_cons_inner_nodes[8] 1
    y[4,9]     OBJ        0
    y[4,9]     flow_cons_target -1
    y[4,9]     c_15112    -45.34
    y[4,9]     flow_cons_inner_nodes[9] 1
    y[4,10]    OBJ        0
    y[4,10]    c_15112    -18.11
    y[4,10]    flow_cons_target -1
    y[4,10]    flow_cons_inner_nodes[10] 1
    y[5,0]     OBJ        0
    y[5,0]     c_15112    -7.81
    y[5,0]     flow_cons_inner_nodes[5] -1
    y[5,0]     flow_cons_inner_nodes[0] 1
    y[5,1]     OBJ        0
    y[5,1]     c_15112    -46.53
    y[5,1]     flow_cons_inner_nodes[5] -1
    y[5,1]     flow_cons_inner_nodes[1] 1
    y[5,2]     OBJ        0
    y[5,2]     flow_cons_inner_nodes[5] -1
    y[5,2]     c_15112    -60.61
    y[5,2]     flow_cons_inner_nodes[2] 1
    y[5,3]     OBJ        0
    y[5,3]     c_15112    -58.55
    y[5,3]     flow_cons_source -1
    y[5,3]     flow_cons_inner_nodes[5] -1
    y[5,4]     OBJ        0
    y[5,4]     c_15112    -39.7
    y[5,4]     flow_cons_target 1
    y[5,4]     flow_cons_inner_nodes[5] -1
    y[5,6]     OBJ        0
    y[5,6]     c_15112    -60.96
    y[5,6]     flow_cons_inner_nodes[6] 1
    y[5,6]     flow_cons_inner_nodes[5] -1
    y[5,7]     OBJ        0
    y[5,7]     c_15112    -30.15
    y[5,7]     flow_cons_inner_nodes[7] 1
    y[5,7]     flow_cons_inner_nodes[5] -1
    y[5,8]     OBJ        0
    y[5,8]     c_15112    -49.16
    y[5,8]     flow_cons_inner_nodes[8] 1
    y[5,8]     flow_cons_inner_nodes[5] -1
    y[5,9]     OBJ        0
    y[5,9]     c_15112    -56.14
    y[5,9]     flow_cons_inner_nodes[9] 1
    y[5,9]     flow_cons_inner_nodes[5] -1
    y[5,10]    OBJ        0
    y[5,10]    c_15112    -30.46
    y[5,10]    flow_cons_inner_nodes[10] 1
    y[5,10]    flow_cons_inner_nodes[5] -1
    y[6,0]     OBJ        0
    y[6,0]     c_15112    -62.68
    y[6,0]     flow_cons_inner_nodes[6] -1
    y[6,0]     flow_cons_inner_nodes[0] 1
    y[6,1]     OBJ        0
    y[6,1]     c_15112    -18.68
    y[6,1]     flow_cons_inner_nodes[6] -1
    y[6,1]     flow_cons_inner_nodes[1] 1
    y[6,2]     OBJ        0
    y[6,2]     flow_cons_inner_nodes[6] -1
    y[6,2]     c_15112    -3.61
    y[6,2]     flow_cons_inner_nodes[2] 1
    y[6,3]     OBJ        0
    y[6,3]     c_15112    -34.18
    y[6,3]     flow_cons_source -1
    y[6,3]     flow_cons_inner_nodes[6] -1
    y[6,5]     OBJ        0
    y[6,5]     c_15112    -60.96
    y[6,5]     flow_cons_inner_nodes[6] -1
    y[6,5]     flow_cons_inner_nodes[5] 1
    y[6,8]     OBJ        0
    y[6,8]     c_15112    -42.95
    y[6,8]     flow_cons_inner_nodes[8] 1
    y[6,8]     flow_cons_inner_nodes[6] -1
    y[6,9]     OBJ        0
    y[6,9]     c_15112    -44.94
    y[6,9]     flow_cons_inner_nodes[9] 1
    y[6,9]     flow_cons_inner_nodes[6] -1
    y[6,10]    OBJ        0
    y[6,10]    c_15112    -59.23
    y[6,10]    flow_cons_inner_nodes[10] 1
    y[6,10]    flow_cons_inner_nodes[6] -1
    y[7,0]     OBJ        0
    y[7,0]     c_15112    -25.3
    y[7,0]     flow_cons_inner_nodes[7] -1
    y[7,0]     flow_cons_inner_nodes[0] 1
    y[7,4]     OBJ        0
    y[7,4]     c_15112    -29
    y[7,4]     flow_cons_target 1
    y[7,4]     flow_cons_inner_nodes[7] -1
    y[7,5]     OBJ        0
    y[7,5]     c_15112    -30.15
    y[7,5]     flow_cons_inner_nodes[7] -1
    y[7,5]     flow_cons_inner_nodes[5] 1
    y[7,8]     OBJ        0
    y[7,8]     c_15112    -62.13
    y[7,8]     flow_cons_inner_nodes[8] 1
    y[7,8]     flow_cons_inner_nodes[7] -1
    y[7,10]    OBJ        0
    y[7,10]    c_15112    -35.85
    y[7,10]    flow_cons_inner_nodes[10] 1
    y[7,10]    flow_cons_inner_nodes[7] -1
    y[8,0]     OBJ        0
    y[8,0]     c_15112    -45.12
    y[8,0]     flow_cons_inner_nodes[8] -1
    y[8,0]     flow_cons_inner_nodes[0] 1
    y[8,1]     OBJ        0
    y[8,1]     c_15112    -45.8
    y[8,1]     flow_cons_inner_nodes[8] -1
    y[8,1]     flow_cons_inner_nodes[1] 1
    y[8,2]     OBJ        0
    y[8,2]     flow_cons_inner_nodes[8] -1
    y[8,2]     c_15112    -45.61
    y[8,2]     flow_cons_inner_nodes[2] 1
    y[8,3]     OBJ        0
    y[8,3]     c_15112    -67.8
    y[8,3]     flow_cons_source -1
    y[8,3]     flow_cons_inner_nodes[8] -1
    y[8,4]     OBJ        0
    y[8,4]     c_15112    -41.05
    y[8,4]     flow_cons_target 1
    y[8,4]     flow_cons_inner_nodes[8] -1
    y[8,5]     OBJ        0
    y[8,5]     c_15112    -49.16
    y[8,5]     flow_cons_inner_nodes[8] -1
    y[8,5]     flow_cons_inner_nodes[5] 1
    y[8,6]     OBJ        0
    y[8,6]     c_15112    -42.95
    y[8,6]     flow_cons_inner_nodes[8] -1
    y[8,6]     flow_cons_inner_nodes[6] 1
    y[8,7]     OBJ        0
    y[8,7]     c_15112    -62.13
    y[8,7]     flow_cons_inner_nodes[8] -1
    y[8,7]     flow_cons_inner_nodes[7] 1
    y[8,9]     OBJ        0
    y[8,9]     c_15112    -7
    y[8,9]     flow_cons_inner_nodes[9] 1
    y[8,9]     flow_cons_inner_nodes[8] -1
    y[8,10]    OBJ        0
    y[8,10]    c_15112    -26.4
    y[8,10]    flow_cons_inner_nodes[10] 1
    y[8,10]    flow_cons_inner_nodes[8] -1
    y[9,0]     OBJ        0
    y[9,0]     c_15112    -51.97
    y[9,0]     flow_cons_inner_nodes[9] -1
    y[9,0]     flow_cons_inner_nodes[0] 1
    y[9,1]     OBJ        0
    y[9,1]     c_15112    -50.25
    y[9,1]     flow_cons_inner_nodes[9] -1
    y[9,1]     flow_cons_inner_nodes[1] 1
    y[9,2]     OBJ        0
    y[9,2]     c_15112    -47.93
    y[9,2]     flow_cons_inner_nodes[9] -1
    y[9,2]     flow_cons_inner_nodes[2] 1
    y[9,4]     OBJ        0
    y[9,4]     flow_cons_target 1
    y[9,4]     c_15112    -45.34
    y[9,4]     flow_cons_inner_nodes[9] -1
    y[9,5]     OBJ        0
    y[9,5]     c_15112    -56.14
    y[9,5]     flow_cons_inner_nodes[9] -1
    y[9,5]     flow_cons_inner_nodes[5] 1
    y[9,6]     OBJ        0
    y[9,6]     c_15112    -44.94
    y[9,6]     flow_cons_inner_nodes[9] -1
    y[9,6]     flow_cons_inner_nodes[6] 1
    y[9,8]     OBJ        0
    y[9,8]     c_15112    -7
    y[9,8]     flow_cons_inner_nodes[9] -1
    y[9,8]     flow_cons_inner_nodes[8] 1
    y[9,10]    OBJ        0
    y[9,10]    flow_cons_inner_nodes[10] 1
    y[9,10]    c_15112    -32.25
    y[9,10]    flow_cons_inner_nodes[9] -1
    y[10,0]    OBJ        0
    y[10,0]    c_15112    -23.77
    y[10,0]    flow_cons_inner_nodes[10] -1
    y[10,0]    flow_cons_inner_nodes[0] 1
    y[10,1]    OBJ        0
    y[10,1]    c_15112    -53.34
    y[10,1]    flow_cons_inner_nodes[10] -1
    y[10,1]    flow_cons_inner_nodes[1] 1
    y[10,2]    OBJ        0
    y[10,2]    flow_cons_inner_nodes[10] -1
    y[10,2]    c_15112    -60.67
    y[10,2]    flow_cons_inner_nodes[2] 1
    y[10,4]    OBJ        0
    y[10,4]    c_15112    -18.11
    y[10,4]    flow_cons_target 1
    y[10,4]    flow_cons_inner_nodes[10] -1
    y[10,5]    OBJ        0
    y[10,5]    c_15112    -30.46
    y[10,5]    flow_cons_inner_nodes[10] -1
    y[10,5]    flow_cons_inner_nodes[5] 1
    y[10,6]    OBJ        0
    y[10,6]    c_15112    -59.23
    y[10,6]    flow_cons_inner_nodes[10] -1
    y[10,6]    flow_cons_inner_nodes[6] 1
    y[10,7]    OBJ        0
    y[10,7]    c_15112    -35.85
    y[10,7]    flow_cons_inner_nodes[10] -1
    y[10,7]    flow_cons_inner_nodes[7] 1
    y[10,8]    OBJ        0
    y[10,8]    c_15112    -26.4
    y[10,8]    flow_cons_inner_nodes[10] -1
    y[10,8]    flow_cons_inner_nodes[8] 1
    y[10,9]    OBJ        0
    y[10,9]    flow_cons_inner_nodes[10] -1
    y[10,9]    c_15112    -32.25
    y[10,9]    flow_cons_inner_nodes[9] 1
    MARKER    'MARKER'                 'INTEND'
RHS
    RHS       flow_cons_inner_nodes[0] -0
    RHS       flow_cons_inner_nodes[1] -0
    RHS       flow_cons_inner_nodes[2] -0
    RHS       flow_cons_inner_nodes[5] -0
    RHS       flow_cons_inner_nodes[6] -0
    RHS       flow_cons_inner_nodes[7] -0
    RHS       flow_cons_inner_nodes[8] -0
    RHS       flow_cons_inner_nodes[9] -0
    RHS       flow_cons_inner_nodes[10] -0
    RHS       flow_cons_source 1
    RHS       flow_cons_target 1
    RHS       c_15112    -0
BOUNDS
 LI BND       y[0,1]     0
 UI BND       y[0,1]     1
 LI BND       y[0,2]     0
 UI BND       y[0,2]     1
 LI BND       y[0,3]     0
 UI BND       y[0,3]     1
 LI BND       y[0,4]     0
 UI BND       y[0,4]     1
 LI BND       y[0,5]     0
 UI BND       y[0,5]     1
 LI BND       y[0,6]     0
 UI BND       y[0,6]     1
 LI BND       y[0,7]     0
 UI BND       y[0,7]     1
 LI BND       y[0,8]     0
 UI BND       y[0,8]     1
 LI BND       y[0,9]     0
 UI BND       y[0,9]     1
 LI BND       y[0,10]    0
 UI BND       y[0,10]    1
 LI BND       y[1,0]     0
 UI BND       y[1,0]     1
 LI BND       y[1,2]     0
 UI BND       y[1,2]     1
 LI BND       y[1,3]     0
 UI BND       y[1,3]     1
 LI BND       y[1,5]     0
 UI BND       y[1,5]     1
 LI BND       y[1,6]     0
 UI BND       y[1,6]     1
 LI BND       y[1,8]     0
 UI BND       y[1,8]     1
 LI BND       y[1,9]     0
 UI BND       y[1,9]     1
 LI BND       y[1,10]    0
 UI BND       y[1,10]    1
 LI BND       y[2,0]     0
 UI BND       y[2,0]     1
 LI BND       y[2,1]     0
 UI BND       y[2,1]     1
 LI BND       y[2,3]     0
 UI BND       y[2,3]     1
 LI BND       y[2,5]     0
 UI BND       y[2,5]     1
 LI BND       y[2,6]     0
 UI BND       y[2,6]     1
 LI BND       y[2,8]     0
 UI BND       y[2,8]     1
 LI BND       y[2,9]     0
 UI BND       y[2,9]     1
 LI BND       y[2,10]    0
 UI BND       y[2,10]    1
 LI BND       y[3,0]     0
 UI BND       y[3,0]     1
 LI BND       y[3,1]     0
 UI BND       y[3,1]     1
 LI BND       y[3,2]     0
 UI BND       y[3,2]     1
 LI BND       y[3,5]     0
 UI BND       y[3,5]     1
 LI BND       y[3,6]     0
 UI BND       y[3,6]     1
 LI BND       y[3,8]     0
 UI BND       y[3,8]     1
 LI BND       y[4,0]     0
 UI BND       y[4,0]     1
 LI BND       y[4,5]     0
 UI BND       y[4,5]     1
 LI BND       y[4,7]     0
 UI BND       y[4,7]     1
 LI BND       y[4,8]     0
 UI BND       y[4,8]     1
 LI BND       y[4,9]     0
 UI BND       y[4,9]     1
 LI BND       y[4,10]    0
 UI BND       y[4,10]    1
 LI BND       y[5,0]     0
 UI BND       y[5,0]     1
 LI BND       y[5,1]     0
 UI BND       y[5,1]     1
 LI BND       y[5,2]     0
 UI BND       y[5,2]     1
 LI BND       y[5,3]     0
 UI BND       y[5,3]     1
 LI BND       y[5,4]     0
 UI BND       y[5,4]     1
 LI BND       y[5,6]     0
 UI BND       y[5,6]     1
 LI BND       y[5,7]     0
 UI BND       y[5,7]     1
 LI BND       y[5,8]     0
 UI BND       y[5,8]     1
 LI BND       y[5,9]     0
 UI BND       y[5,9]     1
 LI BND       y[5,10]    0
 UI BND       y[5,10]    1
 LI BND       y[6,0]     0
 UI BND       y[6,0]     1
 LI BND       y[6,1]     0
 UI BND       y[6,1]     1
 LI BND       y[6,2]     0
 UI BND       y[6,2]     1
 LI BND       y[6,3]     0
 UI BND       y[6,3]     1
 LI BND       y[6,5]     0
 UI BND       y[6,5]     1
 LI BND       y[6,8]     0
 UI BND       y[6,8]     1
 LI BND       y[6,9]     0
 UI BND       y[6,9]     1
 LI BND       y[6,10]    0
 UI BND       y[6,10]    1
 LI BND       y[7,0]     0
 UI BND       y[7,0]     1
 LI BND       y[7,4]     0
 UI BND       y[7,4]     1
 LI BND       y[7,5]     0
 UI BND       y[7,5]     1
 LI BND       y[7,8]     0
 UI BND       y[7,8]     1
 LI BND       y[7,10]    0
 UI BND       y[7,10]    1
 LI BND       y[8,0]     0
 UI BND       y[8,0]     1
 LI BND       y[8,1]     0
 UI BND       y[8,1]     1
 LI BND       y[8,2]     0
 UI BND       y[8,2]     1
 LI BND       y[8,3]     0
 UI BND       y[8,3]     1
 LI BND       y[8,4]     0
 UI BND       y[8,4]     1
 LI BND       y[8,5]     0
 UI BND       y[8,5]     1
 LI BND       y[8,6]     0
 UI BND       y[8,6]     1
 LI BND       y[8,7]     0
 UI BND       y[8,7]     1
 LI BND       y[8,9]     0
 UI BND       y[8,9]     1
 LI BND       y[8,10]    0
 UI BND       y[8,10]    1
 LI BND       y[9,0]     0
 UI BND       y[9,0]     1
 LI BND       y[9,1]     0
 UI BND       y[9,1]     1
 LI BND       y[9,2]     0
 UI BND       y[9,2]     1
 LI BND       y[9,4]     0
 UI BND       y[9,4]     1
 LI BND       y[9,5]     0
 UI BND       y[9,5]     1
 LI BND       y[9,6]     0
 UI BND       y[9,6]     1
 LI BND       y[9,8]     0
 UI BND       y[9,8]     1
 LI BND       y[9,10]    0
 UI BND       y[9,10]    1
 LI BND       y[10,0]    0
 UI BND       y[10,0]    1
 LI BND       y[10,1]    0
 UI BND       y[10,1]    1
 LI BND       y[10,2]    0
 UI BND       y[10,2]    1
 LI BND       y[10,4]    0
 UI BND       y[10,4]    1
 LI BND       y[10,5]    0
 UI BND       y[10,5]    1
 LI BND       y[10,6]    0
 UI BND       y[10,6]    1
 LI BND       y[10,7]    0
 UI BND       y[10,7]    1
 LI BND       y[10,8]    0
 UI BND       y[10,8]    1
 LI BND       y[10,9]    0
 UI BND       y[10,9]    1
 LO BND       z          0
 UP BND       z          4353.56
ENDATA
